nbNodes = 12;
nbVehi = 10;
nbServi = 5;

e = 
 [|    0,  210,  246,  139,  166,  299,  254,  299,  286,  173,  451,    0,
 |    0,  202,  154,   87,  162,  327,  218,  450,  418,  383,   22,    0,
 |    0,  292,  232,  250,   43,  261,  211,  375,   25,  284,  417,    0,
 |    0,  431,  201,  153,   57,  271,  287,  371,  193,   92,   97,    0,
 |    0,  281,  351,  208,  172,  113,  141,  278,   13,   15,   37,    0,
 |];

l = 
 [| 480, 240, 291, 183, 207, 359, 306, 351, 328, 207, 484, 480,
 | 480, 258, 191, 141, 205, 377, 259, 492, 452, 420,  76, 480,
 | 480, 324, 290, 298,  77, 308, 246, 413,  65, 331, 461, 480,
 | 480, 481, 251, 200, 111, 305, 344, 401, 251, 123, 134, 480,
 | 480, 317, 411, 261, 215, 172, 181, 327,  57,  67,  93, 480,
 |];

a = 
 [|  1,  0,  0,  0,  0,
 |  1,  1,  0,  0,  0,
 |  0,  0,  1,  0,  0,
 |  1,  0,  0,  1,  1,
 |  1,  1,  1,  0,  1,
 |  1,  1,  0,  0,  0,
 |  1,  1,  0,  0,  0,
 |  1,  0,  1,  0,  1,
 |  1,  0,  1,  1,  0,
 |  1,  0,  0,  0,  1,
 |];

p = array3d(1..nbNodes,1..nbVehi,1..nbServi,
[  0,  0,  0,  0,  0,	  0,  0,  0,  0,  0,	  0,  0,  0,  0,  0,	  0,  0,  0,  0,  0,	  0,  0,  0,  0,  0,	  0,  0,  0,  0,  0,	  0,  0,  0,  0,  0,	  0,  0,  0,  0,  0,	  0,  0,  0,  0,  0,	  0,  0,  0,  0,  0,	
 10, 18,  7,  5, 22,	 21, 12, 24, 26, 28,	 19,  5, 18, 29,  8,	 17, 19, 19, 11, 26,	 19, 20, 24, 15, 29,	 21, 16,  9,  6, 17,	 27, 14,  5,  6, 14,	 25, 22, 24, 19, 19,	 24, 10, 21, 13, 11,	 24, 27, 25, 14, 10,	
 23,  5, 26, 17, 17,	 25,  9, 28,  6, 10,	 18,  5, 19, 18,  7,	  6, 13, 24, 25, 29,	 15, 21, 11,  9,  6,	 17, 28,  5, 15, 14,	 11,  8, 14,  9, 21,	 26,  6, 27, 27,  7,	  9, 15,  8, 26,  5,	 12, 27, 16,  8, 24,	
 17, 21, 15, 24, 25,	 17, 11, 23, 17, 21,	  8, 25, 27, 19, 29,	 20, 16,  5, 19, 15,	 10, 23, 27, 15, 21,	 29, 22, 18, 15, 27,	 14,  5, 18, 27, 24,	 13, 16,  7,  9,  5,	 26, 12, 26, 25, 28,	 27, 15, 16,  5, 29,	
 26, 12, 24, 25, 22,	 16, 25, 16,  6, 12,	 13, 16, 12, 29, 15,	  8, 12, 26, 13, 18,	 26,  9, 27, 24,  6,	 26, 24, 16, 12, 24,	 17,  9,  6, 11, 29,	 25, 22, 26, 13, 24,	  9, 23, 12, 18, 22,	 22, 22,  7, 18,  7,	
 20, 16, 13, 18, 11,	 14, 14,  5, 25, 21,	 26, 12, 27, 29, 20,	 29, 26, 13, 25,  9,	  9,  6, 27, 16, 20,	 22,  8, 14, 24, 23,	 16, 16,  9, 26,  6,	 17, 10, 17, 19,  5,	 11, 17, 14,  8, 18,	 29,  9, 14, 14,  7,	
 18, 18,  8, 18,  6,	 25, 10,  9, 11,  6,	 29, 24, 17, 11, 20,	 21, 25, 25,  8, 17,	 27, 14, 29, 11, 18,	 18, 13, 24, 27, 22,	 26, 18, 13,  7,  6,	 14, 27, 13, 21, 11,	 14, 20,  7, 28, 28,	 23, 19, 24, 20, 23,	
 11, 20,  9, 12, 28,	 22, 25, 11, 19, 25,	  6, 15, 13, 16, 17,	 16, 25, 17, 26, 18,	 25, 12, 11, 27, 10,	  9, 22, 27, 28, 13,	 22, 11, 28, 26, 19,	 26, 21, 14, 10, 10,	 11, 13, 20, 21, 24,	 10,  9, 19, 22,  5,	
 10, 19, 12, 16, 16,	 20, 20,  9, 17, 21,	 19,  9, 27, 19,  5,	 16, 17, 23, 28, 22,	 28, 11,  5, 21, 28,	 26, 26,  7, 18, 20,	  8, 23,  9, 17,  9,	 22,  7, 24, 26, 19,	 15, 17, 25, 15,  6,	 28, 28, 19, 21, 28,	
 11, 20, 10, 14, 13,	  8, 10,  9, 12, 23,	 26, 15, 16,  7,  5,	 22, 24,  7, 17, 23,	 24, 29, 10, 19, 14,	 12, 17, 15, 26,  9,	 13,  9, 26, 18, 20,	 11, 23, 28, 15,  6,	 23, 13, 18, 12, 15,	 18, 29,  9, 21, 18,	
 29, 15, 20, 10,  6,	  6, 17, 19, 16, 15,	 25, 25, 21, 23, 15,	 14, 29,  9, 14, 16,	 10,  7, 26, 23, 14,	 11, 14, 16, 17,  7,	 29, 17, 19, 21, 24,	 20, 23, 11, 11,  9,	 23,  8, 29, 16, 28,	 17, 27, 27, 21, 11,	
  0,  0,  0,  0,  0,	  0,  0,  0,  0,  0,	  0,  0,  0,  0,  0,	  0,  0,  0,  0,  0,	  0,  0,  0,  0,  0,	  0,  0,  0,  0,  0,	  0,  0,  0,  0,  0,	  0,  0,  0,  0,  0,	  0,  0,  0,  0,  0,	  0,  0,  0,  0,  0,	
]);

rs = 
[|true,true,true,true,true,
 |false,true,false,false,false,
 |false,false,false,false,true,
 |false,false,false,true,false,
 |false,true,false,false,false,
 |true,false,false,false,false,
 |false,false,false,false,true,
 |true,false,false,false,false,
 |false,false,false,true,false,
 |false,false,false,false,true,
 |false,false,false,false,true,
 |true,true,true,true,true,
 |];

d=[|0, 16, 11, 7, 11, 9, 7, 10, 16, 12, 25, 0, 
|16, 0, 24, 9, 26, 9, 22, 25, 18, 5, 35, 16, 
|11, 24, 0, 16, 17, 19, 4, 2, 12, 21, 33, 11, 
|7, 9, 16, 0, 17, 3, 14, 17, 16, 5, 28, 7, 
|11, 26, 17, 17, 0, 17, 13, 16, 26, 21, 15, 11, 
|9, 9, 19, 3, 17, 0, 16, 19, 19, 4, 27, 9, 
|7, 22, 4, 14, 13, 16, 0, 3, 14, 19, 29, 7, 
|10, 25, 2, 17, 16, 19, 3, 0, 14, 21, 31, 10, 
|16, 18, 12, 16, 26, 19, 14, 14, 0, 19, 41, 16, 
|12, 5, 21, 5, 21, 4, 19, 21, 19, 0, 30, 12, 
|25, 35, 33, 28, 15, 27, 29, 31, 41, 30, 0, 25, 
|0, 16, 11, 7, 11, 9, 7, 10, 16, 12, 25, 0, 
|];

%coord=[ (0,0), (5,-16), (-11,2), (3,-7), (5,10), (6,-7), (-7,3), (-10,4), (-13,-10), (6,-11), (19,17), (0,0), ];

